(set-logic QF_S)
(declare-fun T_2 () Bool)
(declare-fun T_5 () Bool)
(declare-fun T_6 () Bool)
(declare-fun T_SELECT_1 () Bool)
(declare-fun T_SELECT_2 () Bool)
(declare-fun PCTEMP_LHS_1 () Int)
(declare-fun PCTEMP_LHS_2 () Int)
(declare-fun T_3 () Int)
(declare-fun T0_6 () String)
(declare-fun T1_6 () String)
(declare-fun var_0xINPUT_15427 () String)
(assert (= var_0xINPUT_15427 (str.++ T0_6 T1_6)))
(assert (not (str.in.re T1_6 (str.to.re ";"))))
(assert T_6)
(assert (= T_6 (not T_5)))
(assert (= T_5 (= PCTEMP_LHS_2 (- 1))))
(assert (= PCTEMP_LHS_2 (- 1)))
(assert (= T_SELECT_2 (not (= PCTEMP_LHS_2 (- 1)))))
(assert (= T_SELECT_1 (not (= PCTEMP_LHS_1 (- 1)))))
(assert T_2)
(assert (= T_2 (not (= PCTEMP_LHS_1 (- 1)))))
(assert (= T_3 (+ PCTEMP_LHS_1 20)))
(assert (= T_3 (str.len T0_6))) ; len 0
(assert (not T_SELECT_2))
(check-sat)
